[2, 1, 0, 3] - 6700
[3, 2, 1, 0, 4] - 6786
[2, 3, 5, 4, 0, 1] - 9815
[3, 4, 0, 1, 6, 5, 2] - 7245
[2, 3, 7, 5, 4, 6, 1, 0] - 2794
[7, 8, 5, 4, 6, 2, 3, 0, 1] - 2438
[4, 5, 2, 7, 9, 6, 8, 3, 0, 1] - 3155
[10, 3, 6, 7, 13, 12, 11, 4, 2, 1, 0, 9, 5, 8, 14] - 5268
[5, 13, 14, 9, 6, 21, 11, 10, 12, 20, 17, 2, 18, 1, 19, 4, 15, 16, 0, 3, 8, 7] - 13005
[7, 4, 19, 15, 0, 14, 16, 12, 8, 10, 9, 21, 22, 24, 1, 5, 2, 23, 17, 13, 18, 3, 6, 11, 20] - 83132

